8
0, 193, 793, 783, 416, 1096, 667, 956
193, 0, 688, 842, 564, 1003, 554, 910
793, 688, 0, 665, 836, 316, 136, 334
783, 842, 665, 0, 478, 765, 666, 489
416, 564, 836, 478, 0, 1070, 756, 843
1096, 1003, 316, 765, 1070, 0, 453, 280
667, 554, 136, 666, 756, 453, 0, 434
956, 910, 334, 489, 843, 280, 434, 0
